/*********************************************
 * OPL 22.1.2.0 Data
 * Author: adrien.dacostaveiga
 * Creation Date: Mar 3, 2026 at 10:35:30 AM
 *********************************************/

n = 3;
m = 2;

E = [10, 20, 30];
L = [100, 120, 140];

A = [60, 80, 100];

M = 1000;

s = [
 [0, 5, 6],
 [5, 0, 4],
 [6, 4, 0]
];

t = [
 [4, 6],
 [5, 3],
 [6, 4]
];